# Solution for model GasLib-40
# Objective value = 1.0724722803553322e+01
loadshed[innode_1] 0
loadshed[innode_2] 0
loadshed[innode_3] 0
loadshed[innode_4] 0
loadshed[innode_5] 0
loadshed[innode_6] 0
loadshed[innode_7] 0
loadshed[innode_8] 0
loadshed[source_1] -3.1919977282521694e-01
loadshed[source_2] 0.090357060978979
loadshed[source_3] 2.9668194240666745e-01
loadshed[sink_1] 0
loadshed[sink_2] 0
loadshed[sink_3] 0
loadshed[sink_4] 0
loadshed[sink_5] 0
loadshed[sink_6] 0
loadshed[sink_7] 0
loadshed[sink_8] 0
loadshed[sink_9] 0
loadshed[sink_10] 0
loadshed[sink_11] 0
loadshed[sink_12] 0.655779228752305
loadshed[sink_13] 0
loadshed[sink_14] 0
loadshed[sink_15] 0
loadshed[sink_16] 0
loadshed[sink_17] 0
loadshed[sink_18] 0
loadshed[sink_19] 0
loadshed[sink_20] 0
loadshed[sink_21] 0
loadshed[sink_22] 0
loadshed[sink_23] 0
loadshed[sink_24] 0
loadshed[sink_25] 0
loadshed[sink_26] 0
loadshed[sink_27] 0
loadshed[sink_28] 0
loadshed[sink_29] 0
flow[source_1,sink_3] 2.0855265853031989e+02
flow[innode_1,sink_16] 1.6354166666666970e+01
flow[innode_6,sink_13] 3.2914195756101581e+00
flow[sink_13,sink_14] -1.3062747091056510e+01
flow[sink_14,sink_10] -2.9416913757723478e+01
flow[sink_25,sink_26] 1.7358326757560945e+02
flow[sink_26,sink_9] 1.2267057810558029e+02
flow[sink_9,sink_18] 1.0631641143891362e+02
flow[sink_26,sink_4] 34.5585228033625
flow[sink_4,sink_20] -2.8296176287504522e+01
flow[sink_18,sink_6] 8.9962244772246947e+01
flow[sink_25,innode_8] -1.7584432519698350e+02
flow[sink_6,sink_7] 4.0899744772246777e+01
flow[sink_6,sink_22] 3.2708333333333641e+01
flow[sink_7,sink_24] 3.8337777196446680e+01
flow[sink_22,sink_1] 1.6354166666666970e+01
flow[sink_24,sink_21] 2.1983610529780012e+01
flow[sink_21,sink_12] 5.6294438631133454e+00
flow[sink_7,sink_5] -1.3792199090866518e+01
flow[sink_5,sink_17] -3.0146365757533431e+01
flow[sink_17,sink_4] -46.5005324242001
flow[sink_17,sink_8] 0
flow[sink_3,sink_23] 16.3541666666697
flow[sink_8,sink_20] -1.6354166666668334e+01
flow[sink_25,sink_20] 6.1004509620839428e+01
flow[sink_25,sink_15] -7.8389038241742881e+01
flow[sink_15,sink_29] -1.1109737157509380e+02
flow[sink_29,sink_28] 1.6354166666667879e+01
flow[sink_29,sink_2] 0
flow[sink_2,sink_15] -1.6354166666684250e+01
flow[sink_29,innode_7] -1.4380570490842737e+02
flow[innode_4,sink_19] 4.2768658994657272e+01
flow[sink_19,innode_3] 7.8479413757723478e+01
flow[innode_4,innode_5] 6.8419088096399776e+01
flow[sink_27,innode_5] -6.8419088096399776e+01
flow[sink_27,sink_19] 5.2064921429733104e+01
flow[sink_10,sink_11] 3.2708333333333641e+01
flow[sink_10,innode_2] 0
flow[sink_10,innode_3] -7.8479413757723478e+01
flow[innode_6,sink_25] -3.2914195756101581e+00
flow[sink_11,innode_1] 1.6354166666666970e+01
flow[sink_19,innode_2] 0
flow[source_3,innode_4] 1.1118774709105705e+02
flow[source_2,innode_7] 1.4380570490842737e+02
flow[sink_3,innode_8] 1.7584432519698350e+02
pressure[innode_1] 7.4776848583014115e+01
pressure[innode_2] 7.4928549890617660e+01
pressure[innode_3] 7.9106798874025273e+01
pressure[innode_4] 81.01325
pressure[innode_5] 8.0966187743457610e+01
pressure[innode_6] 7.3531939322972676e+01
pressure[innode_7] 81.01325
pressure[innode_8] 8.0316138132536423e+01
pressure[source_1] 81.01325
pressure[source_2] 81.01325
pressure[source_3] 81.01325
pressure[sink_1] 4.5614238981884412e+01
pressure[sink_2] 7.3858809792669135e+01
pressure[sink_3] 8.0316138132536423e+01
pressure[sink_4] 5.6912711696753036e+01
pressure[sink_5] 5.2889928333520274e+01
pressure[sink_6] 4.7715316592271783e+01
pressure[sink_7] 4.7153860586785093e+01
pressure[sink_8] 5.7848995335655069e+01
pressure[sink_9] 5.3964421023756586e+01
pressure[sink_10] 7.4928549890617660e+01
pressure[sink_11] 7.4776848583014115e+01
pressure[sink_12] 1.0132499999999998e+00
pressure[sink_13] 7.3513794276899645e+01
pressure[sink_14] 73.5371711755191
pressure[sink_15] 7.3912202542435580e+01
pressure[sink_16] 7.3755198748196435e+01
pressure[sink_17] 5.5135614678266123e+01
pressure[sink_18] 5.0117576380493794e+01
pressure[sink_19] 7.9280582648962209e+01
pressure[sink_20] 5.8988650759243356e+01
pressure[sink_21] 3.0165142271584755e+00
pressure[sink_22] 4.6678008124239419e+01
pressure[sink_23] 8.0151420120876622e+01
pressure[sink_24] 3.2599622885656485e+00
pressure[sink_25] 7.3531939322972676e+01
pressure[sink_26] 6.1306571727422380e+01
pressure[sink_27] 8.0398435737138584e+01
pressure[sink_28] 7.6871728478284126e+01
pressure[sink_29] 77.1670107519013
interdiction[source_1,sink_3] 0
interdiction[innode_1,sink_16] 0
interdiction[innode_6,sink_13] 0
interdiction[sink_13,sink_14] 0
interdiction[sink_14,sink_10] 0
interdiction[sink_25,sink_26] 0
interdiction[sink_26,sink_9] 0
interdiction[sink_9,sink_18] 0
interdiction[sink_26,sink_4] 0
interdiction[sink_4,sink_20] 0
interdiction[sink_18,sink_6] 0
interdiction[sink_25,innode_8] 0
interdiction[sink_6,sink_7] 0
interdiction[sink_6,sink_22] 0
interdiction[sink_7,sink_24] 0
interdiction[sink_22,sink_1] 0
interdiction[sink_24,sink_21] 0
interdiction[sink_21,sink_12] 0
interdiction[sink_7,sink_5] 0
interdiction[sink_5,sink_17] 0
interdiction[sink_17,sink_4] 0
interdiction[sink_17,sink_8] 1
interdiction[sink_3,sink_23] 0
interdiction[sink_8,sink_20] 0
interdiction[sink_25,sink_20] 0
interdiction[sink_25,sink_15] 0
interdiction[sink_15,sink_29] 0
interdiction[sink_29,sink_28] 0
interdiction[sink_29,sink_2] 1
interdiction[sink_2,sink_15] 0
interdiction[sink_29,innode_7] 0
interdiction[innode_4,sink_19] 0
interdiction[sink_19,innode_3] 0
interdiction[innode_4,innode_5] 0
interdiction[sink_27,innode_5] 0
interdiction[sink_27,sink_19] 0
interdiction[sink_10,sink_11] 0
interdiction[sink_10,innode_2] 0
interdiction[sink_10,innode_3] 0
interdiction[innode_6,sink_25] 0
interdiction[sink_11,innode_1] 0
interdiction[sink_19,innode_2] 1
interdiction[source_3,innode_4] 0
interdiction[source_2,innode_7] 0
interdiction[sink_3,innode_8] 0
WCcheckFlow[source_1,sink_3] 39
WCcheckFlow[innode_1,sink_16] 1
WCcheckFlow[innode_6,sink_13] 13
WCcheckFlow[sink_13,sink_14] 12
WCcheckFlow[sink_14,sink_10] 11
WCcheckFlow[sink_25,sink_26] 15
WCcheckFlow[sink_26,sink_9] 11
WCcheckFlow[sink_9,sink_18] 10
WCcheckFlow[sink_26,sink_4] 3
WCcheckFlow[sink_4,sink_20] 2
WCcheckFlow[sink_18,sink_6] 9
WCcheckFlow[sink_25,innode_8] -36
WCcheckFlow[sink_6,sink_7] 6
WCcheckFlow[sink_6,sink_22] 2
WCcheckFlow[sink_7,sink_24] 3
WCcheckFlow[sink_22,sink_1] 1
WCcheckFlow[sink_24,sink_21] 2
WCcheckFlow[sink_21,sink_12] 1
WCcheckFlow[sink_7,sink_5] 2
WCcheckFlow[sink_5,sink_17] 1
WCcheckFlow[sink_17,sink_4] 0
WCcheckFlow[sink_17,sink_8] 0
WCcheckFlow[sink_3,sink_23] 1
WCcheckFlow[sink_8,sink_20] -1
WCcheckFlow[sink_25,sink_20] 0
WCcheckFlow[sink_25,sink_15] 6
WCcheckFlow[sink_15,sink_29] 4
WCcheckFlow[sink_29,sink_28] 1
WCcheckFlow[sink_29,sink_2] 0
WCcheckFlow[sink_2,sink_15] -1
WCcheckFlow[sink_29,innode_7] 2
WCcheckFlow[innode_4,sink_19] -4
WCcheckFlow[sink_19,innode_3] -5
WCcheckFlow[innode_4,innode_5] 2
WCcheckFlow[sink_27,innode_5] -1
WCcheckFlow[sink_27,sink_19] 0
WCcheckFlow[sink_10,sink_11] 3
WCcheckFlow[sink_10,innode_2] 1
WCcheckFlow[sink_10,innode_3] 6
WCcheckFlow[innode_6,sink_25] -14
WCcheckFlow[sink_11,innode_1] 2
WCcheckFlow[sink_19,innode_2] 0
WCcheckFlow[source_3,innode_4] -1
WCcheckFlow[source_2,innode_7] -1
WCcheckFlow[sink_3,innode_8] 37
